(set-logic QF_BV)

(declare-const __ESBMC_ptr_obj_start_0 (_ BitVec 64))

(declare-const __ESBMC_ptr_obj_end_0 (_ BitVec 64))

(declare-const __ESBMC_ptr_obj_start_1 (_ BitVec 64))

(declare-const __ESBMC_ptr_obj_end_1 (_ BitVec 64))

(declare-const |smt_conv::__ESBMC_ptr_addr_range_0..start0| (_ BitVec 64))

(declare-const |smt_conv::__ESBMC_ptr_addr_range_0..end0| (_ BitVec 64))

(declare-const |smt_conv::__ESBMC_ptr_addr_range_1..start0| (_ BitVec 64))

(declare-const |smt_conv::__ESBMC_ptr_addr_range_1..end0| (_ BitVec 64))

(declare-const |smt_conv::smt_conv::collate_array_vals::3..start0| (_ BitVec 64))

(declare-const |smt_conv::smt_conv::collate_array_vals::3..end0| (_ BitVec 64))

(declare-const |smt_conv::smt_conv::collate_array_vals::4..start0| (_ BitVec 64))

(declare-const |smt_conv::smt_conv::collate_array_vals::4..end0| (_ BitVec 64))

(declare-const |smt_conv::smt_conv::collate_array_vals::7..start0| (_ BitVec 64))

(declare-const |smt_conv::smt_conv::collate_array_vals::7..end0| (_ BitVec 64))

(declare-const |c:Cairo.c@339@F@main@x?1!0&0#1| (_ BitVec 32))

(declare-const |nondet$symex::nondet78| (_ BitVec 32))

(declare-const |goto_symex::guard?0!0&0#1| (_ BitVec 1))

(declare-const |goto_symex::guard?0!0&0#2| (_ BitVec 1))

(declare-const |c:Cairo.c@339@F@main@x?1!0&0#2| (_ BitVec 32))

(declare-const |goto_symex::guard?0!0&0#3| (_ BitVec 1))

(declare-const |c:Cairo.c@339@F@main@x?1!0&0#3| (_ BitVec 32))

(declare-const |goto_symex::guard?0!0&0#4| (_ BitVec 1))

(declare-const |c:Cairo.c@339@F@main@x?1!0&0#4| (_ BitVec 32))

(declare-const |goto_symex::guard?0!0&0#5| (_ BitVec 1))

(declare-const |c:Cairo.c@339@F@main@x?1!0&0#5| (_ BitVec 32))

(declare-const |goto_symex::guard?0!0&0#6| (_ BitVec 1))

(declare-const |c:Cairo.c@339@F@main@x?1!0&0#6| (_ BitVec 32))

(declare-const |goto_symex::guard?0!0&0#7| (_ BitVec 1))

(declare-const |c:Cairo.c@339@F@main@x?1!0&0#7| (_ BitVec 32))

(declare-const |goto_symex::guard?0!0&0#8| (_ BitVec 1))

(declare-const |c:Cairo.c@339@F@main@x?1!0&0#8| (_ BitVec 32))

(declare-const |goto_symex::guard?0!0&0#9| (_ BitVec 1))

(declare-const |c:Cairo.c@339@F@main@x?1!0&0#9| (_ BitVec 32))

(declare-const |goto_symex::guard?0!0&0#10| (_ BitVec 1))

(declare-const |c:Cairo.c@339@F@main@x?1!0&0#10| (_ BitVec 32))

(declare-const |goto_symex::guard?0!0&0#11| (_ BitVec 1))

(declare-const |c:Cairo.c@339@F@main@x?1!0&0#11| (_ BitVec 32))

(declare-const |goto_symex::guard?0!0&0#12| (_ BitVec 1))

(declare-const |c:Cairo.c@339@F@main@x?1!0&0#12| (_ BitVec 32))

(declare-const |goto_symex::guard?0!0&0#13| (_ BitVec 1))

(declare-const |c:Cairo.c@339@F@main@x?1!0&0#13| (_ BitVec 32))

(declare-const |goto_symex::guard?0!0&0#14| (_ BitVec 1))

(declare-const |c:Cairo.c@339@F@main@x?1!0&0#14| (_ BitVec 32))

(declare-const |goto_symex::guard?0!0&0#15| (_ BitVec 1))

(declare-const |c:Cairo.c@339@F@main@x?1!0&0#15| (_ BitVec 32))

(declare-const |goto_symex::guard?0!0&0#16| (_ BitVec 1))

(declare-const |c:Cairo.c@339@F@main@x?1!0&0#16| (_ BitVec 32))

(declare-const |goto_symex::guard?0!0&0#17| (_ BitVec 1))

(declare-const |c:Cairo.c@339@F@main@x?1!0&0#17| (_ BitVec 32))

(declare-const |goto_symex::guard?0!0&0#18| (_ BitVec 1))

(declare-const |c:Cairo.c@339@F@main@x?1!0&0#18| (_ BitVec 32))

(declare-const |goto_symex::guard?0!0&0#19| (_ BitVec 1))

(declare-const |c:Cairo.c@339@F@main@x?1!0&0#19| (_ BitVec 32))

(declare-const |goto_symex::guard?0!0&0#20| (_ BitVec 1))

(declare-const |c:Cairo.c@339@F@main@x?1!0&0#20| (_ BitVec 32))

(declare-const |goto_symex::guard?0!0&0#21| (_ BitVec 1))

(declare-const |c:Cairo.c@339@F@main@x?1!0&0#21| (_ BitVec 32))

(declare-const |goto_symex::guard?0!0&0#22| (_ BitVec 1))

(declare-const |c:Cairo.c@339@F@main@x?1!0&0#22| (_ BitVec 32))

(declare-const |goto_symex::guard?0!0&0#23| (_ BitVec 1))

(declare-const |c:Cairo.c@339@F@main@x?1!0&0#23| (_ BitVec 32))

(declare-const |goto_symex::guard?0!0&0#24| (_ BitVec 1))

(declare-const |c:Cairo.c@339@F@main@x?1!0&0#24| (_ BitVec 32))

(declare-const |goto_symex::guard?0!0&0#25| (_ BitVec 1))

(declare-const |c:Cairo.c@339@F@main@x?1!0&0#25| (_ BitVec 32))

(declare-const |goto_symex::guard?0!0&0#26| (_ BitVec 1))

(declare-const |c:Cairo.c@339@F@main@x?1!0&0#26| (_ BitVec 32))

(declare-const |goto_symex::guard?0!0&0#27| (_ BitVec 1))

(declare-const |c:Cairo.c@339@F@main@x?1!0&0#27| (_ BitVec 32))

(declare-const |goto_symex::guard?0!0&0#28| (_ BitVec 1))

(declare-const |c:Cairo.c@339@F@main@x?1!0&0#28| (_ BitVec 32))

(declare-const |goto_symex::guard?0!0&0#29| (_ BitVec 1))

(declare-const |c:Cairo.c@339@F@main@x?1!0&0#29| (_ BitVec 32))

(declare-const |goto_symex::guard?0!0&0#30| (_ BitVec 1))

(declare-const |c:Cairo.c@339@F@main@x?1!0&0#30| (_ BitVec 32))

(declare-const |goto_symex::guard?0!0&0#31| (_ BitVec 1))

(declare-const |c:Cairo.c@339@F@main@x?1!0&0#31| (_ BitVec 32))

(declare-const |goto_symex::guard?0!0&0#32| (_ BitVec 1))

(declare-const |c:Cairo.c@339@F@main@x?1!0&0#32| (_ BitVec 32))

(declare-const |goto_symex::guard?0!0&0#33| (_ BitVec 1))

(declare-const |c:Cairo.c@339@F@main@x?1!0&0#33| (_ BitVec 32))

(declare-const |goto_symex::guard?0!0&0#34| (_ BitVec 1))

(declare-const |c:Cairo.c@339@F@main@x?1!0&0#34| (_ BitVec 32))

(declare-const |goto_symex::guard?0!0&0#35| (_ BitVec 1))

(declare-const |c:Cairo.c@339@F@main@x?1!0&0#35| (_ BitVec 32))

(declare-const |goto_symex::guard?0!0&0#36| (_ BitVec 1))

(declare-const |c:Cairo.c@339@F@main@x?1!0&0#36| (_ BitVec 32))

(declare-const |goto_symex::guard?0!0&0#37| (_ BitVec 1))

(declare-const |c:Cairo.c@339@F@main@x?1!0&0#37| (_ BitVec 32))

(declare-const |goto_symex::guard?0!0&0#38| (_ BitVec 1))

(declare-const |c:Cairo.c@339@F@main@x?1!0&0#38| (_ BitVec 32))

(declare-const |goto_symex::guard?0!0&0#39| (_ BitVec 1))

(declare-const |c:Cairo.c@339@F@main@x?1!0&0#39| (_ BitVec 32))

(declare-const |goto_symex::guard?0!0&0#40| (_ BitVec 1))

(declare-const |c:Cairo.c@339@F@main@x?1!0&0#40| (_ BitVec 32))

(declare-const |goto_symex::guard?0!0&0#41| (_ BitVec 1))

(declare-const |c:Cairo.c@339@F@main@x?1!0&0#41| (_ BitVec 32))

(declare-const |goto_symex::guard?0!0&0#42| (_ BitVec 1))

(declare-const |c:Cairo.c@339@F@main@x?1!0&0#42| (_ BitVec 32))

(declare-const |goto_symex::guard?0!0&0#43| (_ BitVec 1))

(declare-const |c:Cairo.c@339@F@main@x?1!0&0#43| (_ BitVec 32))

(declare-const |goto_symex::guard?0!0&0#44| (_ BitVec 1))

(declare-const |c:Cairo.c@339@F@main@x?1!0&0#44| (_ BitVec 32))

(declare-const |goto_symex::guard?0!0&0#45| (_ BitVec 1))

(declare-const |c:Cairo.c@339@F@main@x?1!0&0#45| (_ BitVec 32))

(declare-const |goto_symex::guard?0!0&0#46| (_ BitVec 1))

(declare-const |c:Cairo.c@339@F@main@x?1!0&0#46| (_ BitVec 32))

(declare-const |goto_symex::guard?0!0&0#47| (_ BitVec 1))

(declare-const |c:Cairo.c@339@F@main@x?1!0&0#47| (_ BitVec 32))

(declare-const |goto_symex::guard?0!0&0#48| (_ BitVec 1))

(declare-const |c:Cairo.c@339@F@main@x?1!0&0#48| (_ BitVec 32))

(declare-const |goto_symex::guard?0!0&0#49| (_ BitVec 1))

(declare-const |c:Cairo.c@339@F@main@x?1!0&0#49| (_ BitVec 32))

(declare-const |goto_symex::guard?0!0&0#50| (_ BitVec 1))

(declare-const |c:Cairo.c@339@F@main@x?1!0&0#50| (_ BitVec 32))

(declare-const |goto_symex::guard?0!0&0#51| (_ BitVec 1))

(declare-const |c:Cairo.c@339@F@main@x?1!0&0#51| (_ BitVec 32))

(declare-const |goto_symex::guard?0!0&0#52| (_ BitVec 1))

(declare-const |c:Cairo.c@339@F@main@x?1!0&0#52| (_ BitVec 32))

(declare-const |goto_symex::guard?0!0&0#53| (_ BitVec 1))

(declare-const |c:Cairo.c@339@F@main@x?1!0&0#53| (_ BitVec 32))

(declare-const |goto_symex::guard?0!0&0#54| (_ BitVec 1))

(declare-const |c:Cairo.c@339@F@main@x?1!0&0#54| (_ BitVec 32))

(declare-const |goto_symex::guard?0!0&0#55| (_ BitVec 1))

(declare-const |c:Cairo.c@339@F@main@x?1!0&0#55| (_ BitVec 32))

(declare-const |goto_symex::guard?0!0&0#56| (_ BitVec 1))

(declare-const |c:Cairo.c@339@F@main@x?1!0&0#56| (_ BitVec 32))

(declare-const |goto_symex::guard?0!0&0#57| (_ BitVec 1))

(declare-const |c:Cairo.c@339@F@main@x?1!0&0#57| (_ BitVec 32))

(declare-const |goto_symex::guard?0!0&0#58| (_ BitVec 1))

(declare-const |c:Cairo.c@339@F@main@x?1!0&0#58| (_ BitVec 32))

(declare-const |goto_symex::guard?0!0&0#59| (_ BitVec 1))

(declare-const |c:Cairo.c@339@F@main@x?1!0&0#59| (_ BitVec 32))

(declare-const |goto_symex::guard?0!0&0#60| (_ BitVec 1))

(declare-const |c:Cairo.c@339@F@main@x?1!0&0#60| (_ BitVec 32))

(declare-const |goto_symex::guard?0!0&0#61| (_ BitVec 1))

(declare-const |c:Cairo.c@339@F@main@x?1!0&0#61| (_ BitVec 32))

(declare-const |goto_symex::guard?0!0&0#62| (_ BitVec 1))

(declare-const |c:Cairo.c@339@F@main@x?1!0&0#62| (_ BitVec 32))

(declare-const |goto_symex::guard?0!0&0#63| (_ BitVec 1))

(declare-const |c:Cairo.c@339@F@main@x?1!0&0#63| (_ BitVec 32))

(declare-const |goto_symex::guard?0!0&0#64| (_ BitVec 1))

(declare-const |c:Cairo.c@339@F@main@x?1!0&0#64| (_ BitVec 32))

(declare-const |goto_symex::guard?0!0&0#65| (_ BitVec 1))

(declare-const |c:Cairo.c@339@F@main@x?1!0&0#65| (_ BitVec 32))

(declare-const |goto_symex::guard?0!0&0#66| (_ BitVec 1))

(declare-const |c:Cairo.c@339@F@main@x?1!0&0#66| (_ BitVec 32))

(declare-const |goto_symex::guard?0!0&0#67| (_ BitVec 1))

(declare-const |c:Cairo.c@339@F@main@x?1!0&0#67| (_ BitVec 32))

(declare-const |goto_symex::guard?0!0&0#68| (_ BitVec 1))

(declare-const |c:Cairo.c@339@F@main@x?1!0&0#68| (_ BitVec 32))

(declare-const |goto_symex::guard?0!0&0#69| (_ BitVec 1))

(declare-const |c:Cairo.c@339@F@main@x?1!0&0#69| (_ BitVec 32))

(declare-const |goto_symex::guard?0!0&0#70| (_ BitVec 1))

(declare-const |c:Cairo.c@339@F@main@x?1!0&0#70| (_ BitVec 32))

(declare-const |goto_symex::guard?0!0&0#71| (_ BitVec 1))

(declare-const |c:Cairo.c@339@F@main@x?1!0&0#71| (_ BitVec 32))

(declare-const |goto_symex::guard?0!0&0#72| (_ BitVec 1))

(declare-const |c:Cairo.c@339@F@main@x?1!0&0#72| (_ BitVec 32))

(declare-const |goto_symex::guard?0!0&0#73| (_ BitVec 1))

(declare-const |c:Cairo.c@339@F@main@x?1!0&0#73| (_ BitVec 32))

(declare-const |goto_symex::guard?0!0&0#74| (_ BitVec 1))

(declare-const |c:Cairo.c@339@F@main@x?1!0&0#74| (_ BitVec 32))

(declare-const |goto_symex::guard?0!0&0#75| (_ BitVec 1))

(declare-const |c:Cairo.c@339@F@main@x?1!0&0#75| (_ BitVec 32))

(declare-const |goto_symex::guard?0!0&0#76| (_ BitVec 1))

(declare-const |c:Cairo.c@339@F@main@x?1!0&0#76| (_ BitVec 32))

(declare-const |goto_symex::guard?0!0&0#77| (_ BitVec 1))

(declare-const |c:Cairo.c@339@F@main@x?1!0&0#77| (_ BitVec 32))

(declare-const |goto_symex::guard?0!0&0#78| (_ BitVec 1))

(declare-const |c:Cairo.c@339@F@main@x?1!0&0#78| (_ BitVec 32))

(declare-const |goto_symex::guard?0!0&0#79| (_ BitVec 1))

(declare-const |c:Cairo.c@339@F@main@x?1!0&0#79| (_ BitVec 32))

(declare-const |goto_symex::guard?0!0&0#80| (_ BitVec 1))

(declare-const |execution_statet::guard_exec?0!0| (_ BitVec 1))

(assert 

 (= __ESBMC_ptr_obj_start_0 #b0000000000000000000000000000000000000000000000000000000000000000))

(assert 

 (= #b0000000000000000000000000000000000000000000000000000000000000000 __ESBMC_ptr_obj_end_0))

(assert 

 (= __ESBMC_ptr_obj_start_1 #b0000000000000000000000000000000000000000000000000000000000000001))

(assert 

 (= #b1111111111111111111111111111111111111111111111111111111111111111 __ESBMC_ptr_obj_end_1))

(assert 

 (= __ESBMC_ptr_obj_end_0 |smt_conv::__ESBMC_ptr_addr_range_0..end0|))

(assert 

 (= __ESBMC_ptr_obj_start_0 |smt_conv::__ESBMC_ptr_addr_range_0..start0|))

(assert 

 (= __ESBMC_ptr_obj_end_1 |smt_conv::__ESBMC_ptr_addr_range_1..end0|))

(assert 

 (= __ESBMC_ptr_obj_start_1 |smt_conv::__ESBMC_ptr_addr_range_1..start0|))

(assert 

 (= |smt_conv::smt_conv::collate_array_vals::3..end0| |smt_conv::smt_conv::collate_array_vals::4..end0|))

(assert 

 (= |smt_conv::smt_conv::collate_array_vals::3..start0| |smt_conv::smt_conv::collate_array_vals::4..start0|))

(assert 

 (= __ESBMC_ptr_obj_end_0 |smt_conv::smt_conv::collate_array_vals::7..end0|))

(assert 

 (= __ESBMC_ptr_obj_start_0 |smt_conv::smt_conv::collate_array_vals::7..start0|))

(assert 

 (= |c:Cairo.c@339@F@main@x?1!0&0#1| |nondet$symex::nondet78|))

(assert 

 (= |goto_symex::guard?0!0&0#1| 

  (ite 

   (bvslt #b00000000000000000000000000000000 |c:Cairo.c@339@F@main@x?1!0&0#1|) #b1 #b0)))

(assert 

 (= |goto_symex::guard?0!0&0#2| 

  (bvnot 

   (ite 

    (= #b00000000000000000000000000000000 |c:Cairo.c@339@F@main@x?1!0&0#1|) #b1 #b0))))

(assert 

 (= |c:Cairo.c@339@F@main@x?1!0&0#2| 

  (bvadd #b11111111111111111111111111111111 |c:Cairo.c@339@F@main@x?1!0&0#1|)))

(assert 

 (= |goto_symex::guard?0!0&0#3| 

  (bvnot 

   (ite 

    (= #b00000000000000000000000000000000 |c:Cairo.c@339@F@main@x?1!0&0#2|) #b1 #b0))))

(assert 

 (= |c:Cairo.c@339@F@main@x?1!0&0#3| 

  (bvadd #b11111111111111111111111111111111 |c:Cairo.c@339@F@main@x?1!0&0#2|)))

(assert 

 (= |goto_symex::guard?0!0&0#4| 

  (bvnot 

   (ite 

    (= #b00000000000000000000000000000000 |c:Cairo.c@339@F@main@x?1!0&0#3|) #b1 #b0))))

(assert 

 (= |c:Cairo.c@339@F@main@x?1!0&0#4| 

  (bvadd #b11111111111111111111111111111111 |c:Cairo.c@339@F@main@x?1!0&0#3|)))

(assert 

 (= |goto_symex::guard?0!0&0#5| 

  (bvnot 

   (ite 

    (= #b00000000000000000000000000000000 |c:Cairo.c@339@F@main@x?1!0&0#4|) #b1 #b0))))

(assert 

 (= |c:Cairo.c@339@F@main@x?1!0&0#5| 

  (bvadd #b11111111111111111111111111111111 |c:Cairo.c@339@F@main@x?1!0&0#4|)))

(assert 

 (= |goto_symex::guard?0!0&0#6| 

  (bvnot 

   (ite 

    (= #b00000000000000000000000000000000 |c:Cairo.c@339@F@main@x?1!0&0#5|) #b1 #b0))))

(assert 

 (= |c:Cairo.c@339@F@main@x?1!0&0#6| 

  (bvadd #b11111111111111111111111111111111 |c:Cairo.c@339@F@main@x?1!0&0#5|)))

(assert 

 (= |goto_symex::guard?0!0&0#7| 

  (bvnot 

   (ite 

    (= #b00000000000000000000000000000000 |c:Cairo.c@339@F@main@x?1!0&0#6|) #b1 #b0))))

(assert 

 (= |c:Cairo.c@339@F@main@x?1!0&0#7| 

  (bvadd #b11111111111111111111111111111111 |c:Cairo.c@339@F@main@x?1!0&0#6|)))

(assert 

 (= |goto_symex::guard?0!0&0#8| 

  (bvnot 

   (ite 

    (= #b00000000000000000000000000000000 |c:Cairo.c@339@F@main@x?1!0&0#7|) #b1 #b0))))

(assert 

 (= |c:Cairo.c@339@F@main@x?1!0&0#8| 

  (bvadd #b11111111111111111111111111111111 |c:Cairo.c@339@F@main@x?1!0&0#7|)))

(assert 

 (= |goto_symex::guard?0!0&0#9| 

  (bvnot 

   (ite 

    (= #b00000000000000000000000000000000 |c:Cairo.c@339@F@main@x?1!0&0#8|) #b1 #b0))))

(assert 

 (= |c:Cairo.c@339@F@main@x?1!0&0#9| 

  (bvadd #b11111111111111111111111111111111 |c:Cairo.c@339@F@main@x?1!0&0#8|)))

(assert 

 (= |goto_symex::guard?0!0&0#10| 

  (bvnot 

   (ite 

    (= #b00000000000000000000000000000000 |c:Cairo.c@339@F@main@x?1!0&0#9|) #b1 #b0))))

(assert 

 (= |c:Cairo.c@339@F@main@x?1!0&0#10| 

  (bvadd #b11111111111111111111111111111111 |c:Cairo.c@339@F@main@x?1!0&0#9|)))

(assert 

 (= |goto_symex::guard?0!0&0#11| 

  (bvnot 

   (ite 

    (= #b00000000000000000000000000000000 |c:Cairo.c@339@F@main@x?1!0&0#10|) #b1 #b0))))

(assert 

 (= |c:Cairo.c@339@F@main@x?1!0&0#11| 

  (bvadd #b11111111111111111111111111111111 |c:Cairo.c@339@F@main@x?1!0&0#10|)))

(assert 

 (= |goto_symex::guard?0!0&0#12| 

  (bvnot 

   (ite 

    (= #b00000000000000000000000000000000 |c:Cairo.c@339@F@main@x?1!0&0#11|) #b1 #b0))))

(assert 

 (= |c:Cairo.c@339@F@main@x?1!0&0#12| 

  (bvadd #b11111111111111111111111111111111 |c:Cairo.c@339@F@main@x?1!0&0#11|)))

(assert 

 (= |goto_symex::guard?0!0&0#13| 

  (bvnot 

   (ite 

    (= #b00000000000000000000000000000000 |c:Cairo.c@339@F@main@x?1!0&0#12|) #b1 #b0))))

(assert 

 (= |c:Cairo.c@339@F@main@x?1!0&0#13| 

  (bvadd #b11111111111111111111111111111111 |c:Cairo.c@339@F@main@x?1!0&0#12|)))

(assert 

 (= |goto_symex::guard?0!0&0#14| 

  (bvnot 

   (ite 

    (= #b00000000000000000000000000000000 |c:Cairo.c@339@F@main@x?1!0&0#13|) #b1 #b0))))

(assert 

 (= |c:Cairo.c@339@F@main@x?1!0&0#14| 

  (bvadd #b11111111111111111111111111111111 |c:Cairo.c@339@F@main@x?1!0&0#13|)))

(assert 

 (= |goto_symex::guard?0!0&0#15| 

  (bvnot 

   (ite 

    (= #b00000000000000000000000000000000 |c:Cairo.c@339@F@main@x?1!0&0#14|) #b1 #b0))))

(assert 

 (= |c:Cairo.c@339@F@main@x?1!0&0#15| 

  (bvadd #b11111111111111111111111111111111 |c:Cairo.c@339@F@main@x?1!0&0#14|)))

(assert 

 (= |goto_symex::guard?0!0&0#16| 

  (bvnot 

   (ite 

    (= #b00000000000000000000000000000000 |c:Cairo.c@339@F@main@x?1!0&0#15|) #b1 #b0))))

(assert 

 (= |c:Cairo.c@339@F@main@x?1!0&0#16| 

  (bvadd #b11111111111111111111111111111111 |c:Cairo.c@339@F@main@x?1!0&0#15|)))

(assert 

 (= |goto_symex::guard?0!0&0#17| 

  (bvnot 

   (ite 

    (= #b00000000000000000000000000000000 |c:Cairo.c@339@F@main@x?1!0&0#16|) #b1 #b0))))

(assert 

 (= |c:Cairo.c@339@F@main@x?1!0&0#17| 

  (bvadd #b11111111111111111111111111111111 |c:Cairo.c@339@F@main@x?1!0&0#16|)))

(assert 

 (= |goto_symex::guard?0!0&0#18| 

  (bvnot 

   (ite 

    (= #b00000000000000000000000000000000 |c:Cairo.c@339@F@main@x?1!0&0#17|) #b1 #b0))))

(assert 

 (= |c:Cairo.c@339@F@main@x?1!0&0#18| 

  (bvadd #b11111111111111111111111111111111 |c:Cairo.c@339@F@main@x?1!0&0#17|)))

(assert 

 (= |goto_symex::guard?0!0&0#19| 

  (bvnot 

   (ite 

    (= #b00000000000000000000000000000000 |c:Cairo.c@339@F@main@x?1!0&0#18|) #b1 #b0))))

(assert 

 (= |c:Cairo.c@339@F@main@x?1!0&0#19| 

  (bvadd #b11111111111111111111111111111111 |c:Cairo.c@339@F@main@x?1!0&0#18|)))

(assert 

 (= |goto_symex::guard?0!0&0#20| 

  (bvnot 

   (ite 

    (= #b00000000000000000000000000000000 |c:Cairo.c@339@F@main@x?1!0&0#19|) #b1 #b0))))

(assert 

 (= |c:Cairo.c@339@F@main@x?1!0&0#20| 

  (bvadd #b11111111111111111111111111111111 |c:Cairo.c@339@F@main@x?1!0&0#19|)))

(assert 

 (= |goto_symex::guard?0!0&0#21| 

  (bvnot 

   (ite 

    (= #b00000000000000000000000000000000 |c:Cairo.c@339@F@main@x?1!0&0#20|) #b1 #b0))))

(assert 

 (= |c:Cairo.c@339@F@main@x?1!0&0#21| 

  (bvadd #b11111111111111111111111111111111 |c:Cairo.c@339@F@main@x?1!0&0#20|)))

(assert 

 (= |goto_symex::guard?0!0&0#22| 

  (bvnot 

   (ite 

    (= #b00000000000000000000000000000000 |c:Cairo.c@339@F@main@x?1!0&0#21|) #b1 #b0))))

(assert 

 (= |c:Cairo.c@339@F@main@x?1!0&0#22| 

  (bvadd #b11111111111111111111111111111111 |c:Cairo.c@339@F@main@x?1!0&0#21|)))

(assert 

 (= |goto_symex::guard?0!0&0#23| 

  (bvnot 

   (ite 

    (= #b00000000000000000000000000000000 |c:Cairo.c@339@F@main@x?1!0&0#22|) #b1 #b0))))

(assert 

 (= |c:Cairo.c@339@F@main@x?1!0&0#23| 

  (bvadd #b11111111111111111111111111111111 |c:Cairo.c@339@F@main@x?1!0&0#22|)))

(assert 

 (= |goto_symex::guard?0!0&0#24| 

  (bvnot 

   (ite 

    (= #b00000000000000000000000000000000 |c:Cairo.c@339@F@main@x?1!0&0#23|) #b1 #b0))))

(assert 

 (= |c:Cairo.c@339@F@main@x?1!0&0#24| 

  (bvadd #b11111111111111111111111111111111 |c:Cairo.c@339@F@main@x?1!0&0#23|)))

(assert 

 (= |goto_symex::guard?0!0&0#25| 

  (bvnot 

   (ite 

    (= #b00000000000000000000000000000000 |c:Cairo.c@339@F@main@x?1!0&0#24|) #b1 #b0))))

(assert 

 (= |c:Cairo.c@339@F@main@x?1!0&0#25| 

  (bvadd #b11111111111111111111111111111111 |c:Cairo.c@339@F@main@x?1!0&0#24|)))

(assert 

 (= |goto_symex::guard?0!0&0#26| 

  (bvnot 

   (ite 

    (= #b00000000000000000000000000000000 |c:Cairo.c@339@F@main@x?1!0&0#25|) #b1 #b0))))

(assert 

 (= |c:Cairo.c@339@F@main@x?1!0&0#26| 

  (bvadd #b11111111111111111111111111111111 |c:Cairo.c@339@F@main@x?1!0&0#25|)))

(assert 

 (= |goto_symex::guard?0!0&0#27| 

  (bvnot 

   (ite 

    (= #b00000000000000000000000000000000 |c:Cairo.c@339@F@main@x?1!0&0#26|) #b1 #b0))))

(assert 

 (= |c:Cairo.c@339@F@main@x?1!0&0#27| 

  (bvadd #b11111111111111111111111111111111 |c:Cairo.c@339@F@main@x?1!0&0#26|)))

(assert 

 (= |goto_symex::guard?0!0&0#28| 

  (bvnot 

   (ite 

    (= #b00000000000000000000000000000000 |c:Cairo.c@339@F@main@x?1!0&0#27|) #b1 #b0))))

(assert 

 (= |c:Cairo.c@339@F@main@x?1!0&0#28| 

  (bvadd #b11111111111111111111111111111111 |c:Cairo.c@339@F@main@x?1!0&0#27|)))

(assert 

 (= |goto_symex::guard?0!0&0#29| 

  (bvnot 

   (ite 

    (= #b00000000000000000000000000000000 |c:Cairo.c@339@F@main@x?1!0&0#28|) #b1 #b0))))

(assert 

 (= |c:Cairo.c@339@F@main@x?1!0&0#29| 

  (bvadd #b11111111111111111111111111111111 |c:Cairo.c@339@F@main@x?1!0&0#28|)))

(assert 

 (= |goto_symex::guard?0!0&0#30| 

  (bvnot 

   (ite 

    (= #b00000000000000000000000000000000 |c:Cairo.c@339@F@main@x?1!0&0#29|) #b1 #b0))))

(assert 

 (= |c:Cairo.c@339@F@main@x?1!0&0#30| 

  (bvadd #b11111111111111111111111111111111 |c:Cairo.c@339@F@main@x?1!0&0#29|)))

(assert 

 (= |goto_symex::guard?0!0&0#31| 

  (bvnot 

   (ite 

    (= #b00000000000000000000000000000000 |c:Cairo.c@339@F@main@x?1!0&0#30|) #b1 #b0))))

(assert 

 (= |c:Cairo.c@339@F@main@x?1!0&0#31| 

  (bvadd #b11111111111111111111111111111111 |c:Cairo.c@339@F@main@x?1!0&0#30|)))

(assert 

 (= |goto_symex::guard?0!0&0#32| 

  (bvnot 

   (ite 

    (= #b00000000000000000000000000000000 |c:Cairo.c@339@F@main@x?1!0&0#31|) #b1 #b0))))

(assert 

 (= |c:Cairo.c@339@F@main@x?1!0&0#32| 

  (bvadd #b11111111111111111111111111111111 |c:Cairo.c@339@F@main@x?1!0&0#31|)))

(assert 

 (= |goto_symex::guard?0!0&0#33| 

  (bvnot 

   (ite 

    (= #b00000000000000000000000000000000 |c:Cairo.c@339@F@main@x?1!0&0#32|) #b1 #b0))))

(assert 

 (= |c:Cairo.c@339@F@main@x?1!0&0#33| 

  (bvadd #b11111111111111111111111111111111 |c:Cairo.c@339@F@main@x?1!0&0#32|)))

(assert 

 (= |goto_symex::guard?0!0&0#34| 

  (bvnot 

   (ite 

    (= #b00000000000000000000000000000000 |c:Cairo.c@339@F@main@x?1!0&0#33|) #b1 #b0))))

(assert 

 (= |c:Cairo.c@339@F@main@x?1!0&0#34| 

  (bvadd #b11111111111111111111111111111111 |c:Cairo.c@339@F@main@x?1!0&0#33|)))

(assert 

 (= |goto_symex::guard?0!0&0#35| 

  (bvnot 

   (ite 

    (= #b00000000000000000000000000000000 |c:Cairo.c@339@F@main@x?1!0&0#34|) #b1 #b0))))

(assert 

 (= |c:Cairo.c@339@F@main@x?1!0&0#35| 

  (bvadd #b11111111111111111111111111111111 |c:Cairo.c@339@F@main@x?1!0&0#34|)))

(assert 

 (= |goto_symex::guard?0!0&0#36| 

  (bvnot 

   (ite 

    (= #b00000000000000000000000000000000 |c:Cairo.c@339@F@main@x?1!0&0#35|) #b1 #b0))))

(assert 

 (= |c:Cairo.c@339@F@main@x?1!0&0#36| 

  (bvadd #b11111111111111111111111111111111 |c:Cairo.c@339@F@main@x?1!0&0#35|)))

(assert 

 (= |goto_symex::guard?0!0&0#37| 

  (bvnot 

   (ite 

    (= #b00000000000000000000000000000000 |c:Cairo.c@339@F@main@x?1!0&0#36|) #b1 #b0))))

(assert 

 (= |c:Cairo.c@339@F@main@x?1!0&0#37| 

  (bvadd #b11111111111111111111111111111111 |c:Cairo.c@339@F@main@x?1!0&0#36|)))

(assert 

 (= |goto_symex::guard?0!0&0#38| 

  (bvnot 

   (ite 

    (= #b00000000000000000000000000000000 |c:Cairo.c@339@F@main@x?1!0&0#37|) #b1 #b0))))

(assert 

 (= |c:Cairo.c@339@F@main@x?1!0&0#38| 

  (bvadd #b11111111111111111111111111111111 |c:Cairo.c@339@F@main@x?1!0&0#37|)))

(assert 

 (= |goto_symex::guard?0!0&0#39| 

  (bvnot 

   (ite 

    (= #b00000000000000000000000000000000 |c:Cairo.c@339@F@main@x?1!0&0#38|) #b1 #b0))))

(assert 

 (= |c:Cairo.c@339@F@main@x?1!0&0#39| 

  (bvadd #b11111111111111111111111111111111 |c:Cairo.c@339@F@main@x?1!0&0#38|)))

(assert 

 (= |goto_symex::guard?0!0&0#40| 

  (bvnot 

   (ite 

    (= #b00000000000000000000000000000000 |c:Cairo.c@339@F@main@x?1!0&0#39|) #b1 #b0))))

(assert 

 (= |c:Cairo.c@339@F@main@x?1!0&0#40| 

  (bvadd #b11111111111111111111111111111111 |c:Cairo.c@339@F@main@x?1!0&0#39|)))

(assert 

 (= |goto_symex::guard?0!0&0#41| 

  (bvnot 

   (ite 

    (= #b00000000000000000000000000000000 |c:Cairo.c@339@F@main@x?1!0&0#40|) #b1 #b0))))

(assert 

 (= |c:Cairo.c@339@F@main@x?1!0&0#41| 

  (bvadd #b11111111111111111111111111111111 |c:Cairo.c@339@F@main@x?1!0&0#40|)))

(assert 

 (= |goto_symex::guard?0!0&0#42| 

  (bvnot 

   (ite 

    (= #b00000000000000000000000000000000 |c:Cairo.c@339@F@main@x?1!0&0#41|) #b1 #b0))))

(assert 

 (= |c:Cairo.c@339@F@main@x?1!0&0#42| 

  (bvadd #b11111111111111111111111111111111 |c:Cairo.c@339@F@main@x?1!0&0#41|)))

(assert 

 (= |goto_symex::guard?0!0&0#43| 

  (bvnot 

   (ite 

    (= #b00000000000000000000000000000000 |c:Cairo.c@339@F@main@x?1!0&0#42|) #b1 #b0))))

(assert 

 (= |c:Cairo.c@339@F@main@x?1!0&0#43| 

  (bvadd #b11111111111111111111111111111111 |c:Cairo.c@339@F@main@x?1!0&0#42|)))

(assert 

 (= |goto_symex::guard?0!0&0#44| 

  (bvnot 

   (ite 

    (= #b00000000000000000000000000000000 |c:Cairo.c@339@F@main@x?1!0&0#43|) #b1 #b0))))

(assert 

 (= |c:Cairo.c@339@F@main@x?1!0&0#44| 

  (bvadd #b11111111111111111111111111111111 |c:Cairo.c@339@F@main@x?1!0&0#43|)))

(assert 

 (= |goto_symex::guard?0!0&0#45| 

  (bvnot 

   (ite 

    (= #b00000000000000000000000000000000 |c:Cairo.c@339@F@main@x?1!0&0#44|) #b1 #b0))))

(assert 

 (= |c:Cairo.c@339@F@main@x?1!0&0#45| 

  (bvadd #b11111111111111111111111111111111 |c:Cairo.c@339@F@main@x?1!0&0#44|)))

(assert 

 (= |goto_symex::guard?0!0&0#46| 

  (bvnot 

   (ite 

    (= #b00000000000000000000000000000000 |c:Cairo.c@339@F@main@x?1!0&0#45|) #b1 #b0))))

(assert 

 (= |c:Cairo.c@339@F@main@x?1!0&0#46| 

  (bvadd #b11111111111111111111111111111111 |c:Cairo.c@339@F@main@x?1!0&0#45|)))

(assert 

 (= |goto_symex::guard?0!0&0#47| 

  (bvnot 

   (ite 

    (= #b00000000000000000000000000000000 |c:Cairo.c@339@F@main@x?1!0&0#46|) #b1 #b0))))

(assert 

 (= |c:Cairo.c@339@F@main@x?1!0&0#47| 

  (bvadd #b11111111111111111111111111111111 |c:Cairo.c@339@F@main@x?1!0&0#46|)))

(assert 

 (= |goto_symex::guard?0!0&0#48| 

  (bvnot 

   (ite 

    (= #b00000000000000000000000000000000 |c:Cairo.c@339@F@main@x?1!0&0#47|) #b1 #b0))))

(assert 

 (= |c:Cairo.c@339@F@main@x?1!0&0#48| 

  (bvadd #b11111111111111111111111111111111 |c:Cairo.c@339@F@main@x?1!0&0#47|)))

(assert 

 (= |goto_symex::guard?0!0&0#49| 

  (bvnot 

   (ite 

    (= #b00000000000000000000000000000000 |c:Cairo.c@339@F@main@x?1!0&0#48|) #b1 #b0))))

(assert 

 (= |c:Cairo.c@339@F@main@x?1!0&0#49| 

  (bvadd #b11111111111111111111111111111111 |c:Cairo.c@339@F@main@x?1!0&0#48|)))

(assert 

 (= |goto_symex::guard?0!0&0#50| 

  (bvnot 

   (ite 

    (= #b00000000000000000000000000000000 |c:Cairo.c@339@F@main@x?1!0&0#49|) #b1 #b0))))

(assert 

 (= |c:Cairo.c@339@F@main@x?1!0&0#50| 

  (bvadd #b11111111111111111111111111111111 |c:Cairo.c@339@F@main@x?1!0&0#49|)))

(assert 

 (= |goto_symex::guard?0!0&0#51| 

  (bvnot 

   (ite 

    (= #b00000000000000000000000000000000 |c:Cairo.c@339@F@main@x?1!0&0#50|) #b1 #b0))))

(assert 

 (= |c:Cairo.c@339@F@main@x?1!0&0#51| 

  (bvadd #b11111111111111111111111111111111 |c:Cairo.c@339@F@main@x?1!0&0#50|)))

(assert 

 (= |goto_symex::guard?0!0&0#52| 

  (bvnot 

   (ite 

    (= #b00000000000000000000000000000000 |c:Cairo.c@339@F@main@x?1!0&0#51|) #b1 #b0))))

(assert 

 (= |c:Cairo.c@339@F@main@x?1!0&0#52| 

  (bvadd #b11111111111111111111111111111111 |c:Cairo.c@339@F@main@x?1!0&0#51|)))

(assert 

 (= |goto_symex::guard?0!0&0#53| 

  (bvnot 

   (ite 

    (= #b00000000000000000000000000000000 |c:Cairo.c@339@F@main@x?1!0&0#52|) #b1 #b0))))

(assert 

 (= |c:Cairo.c@339@F@main@x?1!0&0#53| 

  (bvadd #b11111111111111111111111111111111 |c:Cairo.c@339@F@main@x?1!0&0#52|)))

(assert 

 (= |goto_symex::guard?0!0&0#54| 

  (bvnot 

   (ite 

    (= #b00000000000000000000000000000000 |c:Cairo.c@339@F@main@x?1!0&0#53|) #b1 #b0))))

(assert 

 (= |c:Cairo.c@339@F@main@x?1!0&0#54| 

  (bvadd #b11111111111111111111111111111111 |c:Cairo.c@339@F@main@x?1!0&0#53|)))

(assert 

 (= |goto_symex::guard?0!0&0#55| 

  (bvnot 

   (ite 

    (= #b00000000000000000000000000000000 |c:Cairo.c@339@F@main@x?1!0&0#54|) #b1 #b0))))

(assert 

 (= |c:Cairo.c@339@F@main@x?1!0&0#55| 

  (bvadd #b11111111111111111111111111111111 |c:Cairo.c@339@F@main@x?1!0&0#54|)))

(assert 

 (= |goto_symex::guard?0!0&0#56| 

  (bvnot 

   (ite 

    (= #b00000000000000000000000000000000 |c:Cairo.c@339@F@main@x?1!0&0#55|) #b1 #b0))))

(assert 

 (= |c:Cairo.c@339@F@main@x?1!0&0#56| 

  (bvadd #b11111111111111111111111111111111 |c:Cairo.c@339@F@main@x?1!0&0#55|)))

(assert 

 (= |goto_symex::guard?0!0&0#57| 

  (bvnot 

   (ite 

    (= #b00000000000000000000000000000000 |c:Cairo.c@339@F@main@x?1!0&0#56|) #b1 #b0))))

(assert 

 (= |c:Cairo.c@339@F@main@x?1!0&0#57| 

  (bvadd #b11111111111111111111111111111111 |c:Cairo.c@339@F@main@x?1!0&0#56|)))

(assert 

 (= |goto_symex::guard?0!0&0#58| 

  (bvnot 

   (ite 

    (= #b00000000000000000000000000000000 |c:Cairo.c@339@F@main@x?1!0&0#57|) #b1 #b0))))

(assert 

 (= |c:Cairo.c@339@F@main@x?1!0&0#58| 

  (bvadd #b11111111111111111111111111111111 |c:Cairo.c@339@F@main@x?1!0&0#57|)))

(assert 

 (= |goto_symex::guard?0!0&0#59| 

  (bvnot 

   (ite 

    (= #b00000000000000000000000000000000 |c:Cairo.c@339@F@main@x?1!0&0#58|) #b1 #b0))))

(assert 

 (= |c:Cairo.c@339@F@main@x?1!0&0#59| 

  (bvadd #b11111111111111111111111111111111 |c:Cairo.c@339@F@main@x?1!0&0#58|)))

(assert 

 (= |goto_symex::guard?0!0&0#60| 

  (bvnot 

   (ite 

    (= #b00000000000000000000000000000000 |c:Cairo.c@339@F@main@x?1!0&0#59|) #b1 #b0))))

(assert 

 (= |c:Cairo.c@339@F@main@x?1!0&0#60| 

  (bvadd #b11111111111111111111111111111111 |c:Cairo.c@339@F@main@x?1!0&0#59|)))

(assert 

 (= |goto_symex::guard?0!0&0#61| 

  (bvnot 

   (ite 

    (= #b00000000000000000000000000000000 |c:Cairo.c@339@F@main@x?1!0&0#60|) #b1 #b0))))

(assert 

 (= |c:Cairo.c@339@F@main@x?1!0&0#61| 

  (bvadd #b11111111111111111111111111111111 |c:Cairo.c@339@F@main@x?1!0&0#60|)))

(assert 

 (= |goto_symex::guard?0!0&0#62| 

  (bvnot 

   (ite 

    (= #b00000000000000000000000000000000 |c:Cairo.c@339@F@main@x?1!0&0#61|) #b1 #b0))))

(assert 

 (= |c:Cairo.c@339@F@main@x?1!0&0#62| 

  (bvadd #b11111111111111111111111111111111 |c:Cairo.c@339@F@main@x?1!0&0#61|)))

(assert 

 (= |goto_symex::guard?0!0&0#63| 

  (bvnot 

   (ite 

    (= #b00000000000000000000000000000000 |c:Cairo.c@339@F@main@x?1!0&0#62|) #b1 #b0))))

(assert 

 (= |c:Cairo.c@339@F@main@x?1!0&0#63| 

  (bvadd #b11111111111111111111111111111111 |c:Cairo.c@339@F@main@x?1!0&0#62|)))

(assert 

 (= |goto_symex::guard?0!0&0#64| 

  (bvnot 

   (ite 

    (= #b00000000000000000000000000000000 |c:Cairo.c@339@F@main@x?1!0&0#63|) #b1 #b0))))

(assert 

 (= |c:Cairo.c@339@F@main@x?1!0&0#64| 

  (bvadd #b11111111111111111111111111111111 |c:Cairo.c@339@F@main@x?1!0&0#63|)))

(assert 

 (= |goto_symex::guard?0!0&0#65| 

  (bvnot 

   (ite 

    (= #b00000000000000000000000000000000 |c:Cairo.c@339@F@main@x?1!0&0#64|) #b1 #b0))))

(assert 

 (= |c:Cairo.c@339@F@main@x?1!0&0#65| 

  (bvadd #b11111111111111111111111111111111 |c:Cairo.c@339@F@main@x?1!0&0#64|)))

(assert 

 (= |goto_symex::guard?0!0&0#66| 

  (bvnot 

   (ite 

    (= #b00000000000000000000000000000000 |c:Cairo.c@339@F@main@x?1!0&0#65|) #b1 #b0))))

(assert 

 (= |c:Cairo.c@339@F@main@x?1!0&0#66| 

  (bvadd #b11111111111111111111111111111111 |c:Cairo.c@339@F@main@x?1!0&0#65|)))

(assert 

 (= |goto_symex::guard?0!0&0#67| 

  (bvnot 

   (ite 

    (= #b00000000000000000000000000000000 |c:Cairo.c@339@F@main@x?1!0&0#66|) #b1 #b0))))

(assert 

 (= |c:Cairo.c@339@F@main@x?1!0&0#67| 

  (bvadd #b11111111111111111111111111111111 |c:Cairo.c@339@F@main@x?1!0&0#66|)))

(assert 

 (= |goto_symex::guard?0!0&0#68| 

  (bvnot 

   (ite 

    (= #b00000000000000000000000000000000 |c:Cairo.c@339@F@main@x?1!0&0#67|) #b1 #b0))))

(assert 

 (= |c:Cairo.c@339@F@main@x?1!0&0#68| 

  (bvadd #b11111111111111111111111111111111 |c:Cairo.c@339@F@main@x?1!0&0#67|)))

(assert 

 (= |goto_symex::guard?0!0&0#69| 

  (bvnot 

   (ite 

    (= #b00000000000000000000000000000000 |c:Cairo.c@339@F@main@x?1!0&0#68|) #b1 #b0))))

(assert 

 (= |c:Cairo.c@339@F@main@x?1!0&0#69| 

  (bvadd #b11111111111111111111111111111111 |c:Cairo.c@339@F@main@x?1!0&0#68|)))

(assert 

 (= |goto_symex::guard?0!0&0#70| 

  (bvnot 

   (ite 

    (= #b00000000000000000000000000000000 |c:Cairo.c@339@F@main@x?1!0&0#69|) #b1 #b0))))

(assert 

 (= |c:Cairo.c@339@F@main@x?1!0&0#70| 

  (bvadd #b11111111111111111111111111111111 |c:Cairo.c@339@F@main@x?1!0&0#69|)))

(assert 

 (= |goto_symex::guard?0!0&0#71| 

  (bvnot 

   (ite 

    (= #b00000000000000000000000000000000 |c:Cairo.c@339@F@main@x?1!0&0#70|) #b1 #b0))))

(assert 

 (= |c:Cairo.c@339@F@main@x?1!0&0#71| 

  (bvadd #b11111111111111111111111111111111 |c:Cairo.c@339@F@main@x?1!0&0#70|)))

(assert 

 (= |goto_symex::guard?0!0&0#72| 

  (bvnot 

   (ite 

    (= #b00000000000000000000000000000000 |c:Cairo.c@339@F@main@x?1!0&0#71|) #b1 #b0))))

(assert 

 (= |c:Cairo.c@339@F@main@x?1!0&0#72| 

  (bvadd #b11111111111111111111111111111111 |c:Cairo.c@339@F@main@x?1!0&0#71|)))

(assert 

 (= |goto_symex::guard?0!0&0#73| 

  (bvnot 

   (ite 

    (= #b00000000000000000000000000000000 |c:Cairo.c@339@F@main@x?1!0&0#72|) #b1 #b0))))

(assert 

 (= |c:Cairo.c@339@F@main@x?1!0&0#73| 

  (bvadd #b11111111111111111111111111111111 |c:Cairo.c@339@F@main@x?1!0&0#72|)))

(assert 

 (= |goto_symex::guard?0!0&0#74| 

  (bvnot 

   (ite 

    (= #b00000000000000000000000000000000 |c:Cairo.c@339@F@main@x?1!0&0#73|) #b1 #b0))))

(assert 

 (= |c:Cairo.c@339@F@main@x?1!0&0#74| 

  (bvadd #b11111111111111111111111111111111 |c:Cairo.c@339@F@main@x?1!0&0#73|)))

(assert 

 (= |goto_symex::guard?0!0&0#75| 

  (bvnot 

   (ite 

    (= #b00000000000000000000000000000000 |c:Cairo.c@339@F@main@x?1!0&0#74|) #b1 #b0))))

(assert 

 (= |c:Cairo.c@339@F@main@x?1!0&0#75| 

  (bvadd #b11111111111111111111111111111111 |c:Cairo.c@339@F@main@x?1!0&0#74|)))

(assert 

 (= |goto_symex::guard?0!0&0#76| 

  (bvnot 

   (ite 

    (= #b00000000000000000000000000000000 |c:Cairo.c@339@F@main@x?1!0&0#75|) #b1 #b0))))

(assert 

 (= |c:Cairo.c@339@F@main@x?1!0&0#76| 

  (bvadd #b11111111111111111111111111111111 |c:Cairo.c@339@F@main@x?1!0&0#75|)))

(assert 

 (= |goto_symex::guard?0!0&0#77| 

  (bvnot 

   (ite 

    (= #b00000000000000000000000000000000 |c:Cairo.c@339@F@main@x?1!0&0#76|) #b1 #b0))))

(assert 

 (= |c:Cairo.c@339@F@main@x?1!0&0#77| 

  (bvadd #b11111111111111111111111111111111 |c:Cairo.c@339@F@main@x?1!0&0#76|)))

(assert 

 (= |goto_symex::guard?0!0&0#78| 

  (bvnot 

   (ite 

    (= #b00000000000000000000000000000000 |c:Cairo.c@339@F@main@x?1!0&0#77|) #b1 #b0))))

(assert 

 (= |c:Cairo.c@339@F@main@x?1!0&0#78| 

  (bvadd #b11111111111111111111111111111111 |c:Cairo.c@339@F@main@x?1!0&0#77|)))

(assert 

 (= |goto_symex::guard?0!0&0#79| 

  (bvnot 

   (ite 

    (= #b00000000000000000000000000000000 |c:Cairo.c@339@F@main@x?1!0&0#78|) #b1 #b0))))

(assert 

 (= |c:Cairo.c@339@F@main@x?1!0&0#79| 

  (bvadd #b11111111111111111111111111111111 |c:Cairo.c@339@F@main@x?1!0&0#78|)))

(assert 

 (= |goto_symex::guard?0!0&0#80| 

  (bvnot 

   (ite 

    (= #b00000000000000000000000000000000 |c:Cairo.c@339@F@main@x?1!0&0#79|) #b1 #b0))))

(assert (= |execution_statet::guard_exec?0!0| #b1))

(assert (= |goto_symex::guard?0!0&0#80| #b1))

(assert (= |goto_symex::guard?0!0&0#79| #b1))

(assert (= |goto_symex::guard?0!0&0#78| #b1))

(assert (= |goto_symex::guard?0!0&0#77| #b1))

(assert (= |goto_symex::guard?0!0&0#76| #b1))

(assert (= |goto_symex::guard?0!0&0#75| #b1))

(assert (= |goto_symex::guard?0!0&0#74| #b1))

(assert (= |goto_symex::guard?0!0&0#73| #b1))

(assert (= |goto_symex::guard?0!0&0#72| #b1))

(assert (= |goto_symex::guard?0!0&0#71| #b1))

(assert (= |goto_symex::guard?0!0&0#70| #b1))

(assert (= |goto_symex::guard?0!0&0#69| #b1))

(assert (= |goto_symex::guard?0!0&0#68| #b1))

(assert (= |goto_symex::guard?0!0&0#67| #b1))

(assert (= |goto_symex::guard?0!0&0#66| #b1))

(assert (= |goto_symex::guard?0!0&0#65| #b1))

(assert (= |goto_symex::guard?0!0&0#64| #b1))

(assert (= |goto_symex::guard?0!0&0#63| #b1))

(assert (= |goto_symex::guard?0!0&0#62| #b1))

(assert (= |goto_symex::guard?0!0&0#61| #b1))

(assert (= |goto_symex::guard?0!0&0#60| #b1))

(assert (= |goto_symex::guard?0!0&0#59| #b1))

(assert (= |goto_symex::guard?0!0&0#58| #b1))

(assert (= |goto_symex::guard?0!0&0#57| #b1))

(assert (= |goto_symex::guard?0!0&0#56| #b1))

(assert (= |goto_symex::guard?0!0&0#55| #b1))

(assert (= |goto_symex::guard?0!0&0#54| #b1))

(assert (= |goto_symex::guard?0!0&0#53| #b1))

(assert (= |goto_symex::guard?0!0&0#52| #b1))

(assert (= |goto_symex::guard?0!0&0#51| #b1))

(assert (= |goto_symex::guard?0!0&0#50| #b1))

(assert (= |goto_symex::guard?0!0&0#49| #b1))

(assert (= |goto_symex::guard?0!0&0#48| #b1))

(assert (= |goto_symex::guard?0!0&0#47| #b1))

(assert (= |goto_symex::guard?0!0&0#46| #b1))

(assert (= |goto_symex::guard?0!0&0#45| #b1))

(assert (= |goto_symex::guard?0!0&0#44| #b1))

(assert (= |goto_symex::guard?0!0&0#43| #b1))

(assert (= |goto_symex::guard?0!0&0#42| #b1))

(assert (= |goto_symex::guard?0!0&0#41| #b1))

(assert (= |goto_symex::guard?0!0&0#40| #b1))

(assert (= |goto_symex::guard?0!0&0#39| #b1))

(assert (= |goto_symex::guard?0!0&0#38| #b1))

(assert (= |goto_symex::guard?0!0&0#37| #b1))

(assert (= |goto_symex::guard?0!0&0#36| #b1))

(assert (= |goto_symex::guard?0!0&0#35| #b1))

(assert (= |goto_symex::guard?0!0&0#34| #b1))

(assert (= |goto_symex::guard?0!0&0#33| #b1))

(assert (= |goto_symex::guard?0!0&0#32| #b1))

(assert (= |goto_symex::guard?0!0&0#31| #b1))

(assert (= |goto_symex::guard?0!0&0#30| #b1))

(assert (= |goto_symex::guard?0!0&0#29| #b1))

(assert (= |goto_symex::guard?0!0&0#28| #b1))

(assert (= |goto_symex::guard?0!0&0#27| #b1))

(assert (= |goto_symex::guard?0!0&0#26| #b1))

(assert (= |goto_symex::guard?0!0&0#25| #b1))

(assert (= |goto_symex::guard?0!0&0#24| #b1))

(assert (= |goto_symex::guard?0!0&0#23| #b1))

(assert (= |goto_symex::guard?0!0&0#22| #b1))

(assert (= |goto_symex::guard?0!0&0#21| #b1))

(assert (= |goto_symex::guard?0!0&0#20| #b1))

(assert (= |goto_symex::guard?0!0&0#19| #b1))

(assert (= |goto_symex::guard?0!0&0#18| #b1))

(assert (= |goto_symex::guard?0!0&0#17| #b1))

(assert (= |goto_symex::guard?0!0&0#16| #b1))

(assert (= |goto_symex::guard?0!0&0#15| #b1))

(assert (= |goto_symex::guard?0!0&0#14| #b1))

(assert (= |goto_symex::guard?0!0&0#13| #b1))

(assert (= |goto_symex::guard?0!0&0#12| #b1))

(assert (= |goto_symex::guard?0!0&0#11| #b1))

(assert (= |goto_symex::guard?0!0&0#10| #b1))

(assert (= |goto_symex::guard?0!0&0#9| #b1))

(assert (= |goto_symex::guard?0!0&0#8| #b1))

(assert (= |goto_symex::guard?0!0&0#7| #b1))

(assert (= |goto_symex::guard?0!0&0#6| #b1))

(assert (= |goto_symex::guard?0!0&0#5| #b1))

(assert (= |goto_symex::guard?0!0&0#4| #b1))

(assert (= |goto_symex::guard?0!0&0#3| #b1))

(assert (= |goto_symex::guard?0!0&0#2| #b1))

(assert (= |goto_symex::guard?0!0&0#1| #b1))

(check-sat)

(exit)
